1 -1 -2 0
1 1 3 0
1 1 -4 0
1 1 5 0
1 1 -6 0
1 -7 2 0
1 7 3 0
1 -7 1 0
1 -7 4 0
1 8 -9 0
1 -8 -10 0
1 8 11 0
1 -8 -2 0
1 -8 3 0
1 8 -12 0
1 8 -13 0
1 -8 -14 0
1 -8 -4 0
1 -8 -6 0
1 -11 -9 0
1 -11 -10 0
1 -11 -15 0
1 11 2 0
1 -11 -12 0
1 -11 -13 0
1 11 -8 0
1 11 4 0
1 -11 6 0
1 -3 -16 0
1 3 -17 0
1 -3 -7 0
1 -3 -18 0
1 3 19 0
1 -3 -20 0
1 -3 -21 0
1 3 -8 0
1 -3 -1 0
1 3 -6 0
1 -6 22 0
1 6 -16 0
1 -6 23 0
1 6 11 0
1 -6 7 0
1 -6 3 0
1 6 -19 0
1 6 20 0
1 6 21 0
1 6 1 0
1 -2 -16 0
1 2 -24 0
1 2 -11 0
1 2 -7 0
1 2 25 0
1 2 19 0
1 -2 26 0
1 -2 -8 0
1 -2 1 0
1 2 -4 0
1 4 -16 0
1 -4 27 0
1 4 -24 0
1 -4 11 0
1 4 7 0
1 4 -2 0
1 -4 -19 0
1 4 26 0
1 -4 -28 0
1 4 8 0
1 -4 1 0
1 4 29 0
1 21 9 0
1 21 -10 0
1 21 -17 0
1 -21 -3 0
1 -21 -12 0
1 -21 -13 0
1 21 -28 0
1 21 -6 0
1 17 -9 0
1 17 10 0
1 -17 24 0
1 -17 3 0
1 17 12 0
1 -17 13 0
1 17 21 0
1 -17 -6 0
1 -20 -9 0
1 -20 -10 0
1 20 -23 0
1 20 30 0
1 20 31 0
1 20 -3 0
1 20 -12 0
1 20 13 0
1 20 -32 0
1 20 6 0
1 23 -9 0
1 23 30 0
1 23 27 0
1 23 3 0
1 23 12 0
1 -23 -13 0
1 -23 -33 0
1 23 32 0
1 23 6 0
1 13 34 0
1 13 10 0
1 -13 -17 0
1 13 11 0
1 13 35 0
1 13 -36 0
1 -13 37 0
1 13 -20 0
1 13 -8 0
1 -13 38 0
1 10 39 0
1 10 -34 0
1 10 -40 0
1 -10 -23 0
1 10 17 0
1 -10 11 0
1 10 -35 0
1 10 -41 0
1 -10 36 0
1 -10 13 0
1 10 -20 0
1 10 8 0
1 -10 38 0
1 -12 9 0
1 -12 -42 0
1 12 -16 0
1 12 23 0
1 12 17 0
1 -12 11 0
1 -12 -35 0
1 12 43 0
1 -12 -19 0
1 -12 -20 0
1 12 -21 0
1 12 38 0
1 -9 42 0
1 -9 -44 0
1 -9 16 0
1 9 -17 0
1 9 -11 0
1 9 35 0
1 9 -12 0
1 9 -19 0
1 9 -8 0
1 9 -38 0
1 -36 10 0
1 36 30 0
1 36 31 0
1 36 13 0
1 -36 -19 0
1 -36 33 0
1 36 -32 0
1 -34 -10 0
1 34 16 0
1 34 -30 0
1 34 31 0
1 34 -36 0
1 -34 -13 0
1 34 33 0
1 -41 39 0
1 41 10 0
1 41 -30 0
1 41 -31 0
1 -41 -45 0
1 -41 -13 0
1 41 33 0
1 -41 -32 0
1 -39 10 0
1 39 31 0
1 -39 -41 0
1 39 -13 0
1 -39 33 0
1 -39 -32 0
1 32 23 0
1 -32 31 0
1 32 46 0
1 -32 -41 0
1 32 20 0
1 -32 -47 0
1 -32 -48 0
1 -31 39 0
1 31 -34 0
1 31 46 0
1 -31 -41 0
1 31 -36 0
1 -31 20 0
1 31 -32 0
1 33 34 0
1 33 -23 0
1 -33 49 0
1 -33 35 0
1 -33 -41 0
1 33 36 0
1 -33 -50 0
1 33 51 0
1 33 38 0
1 -30 -39 0
1 -30 34 0
1 30 -23 0
1 30 -52 0
1 -30 46 0
1 -30 -49 0
1 30 35 0
1 30 -41 0
1 -30 36 0
1 -30 20 0
1 30 33 0
1 -30 -51 0
1 30 38 0
1 5 -53 0
1 5 -54 0
1 -5 -55 0
1 -5 -56 0
1 54 57 0
1 -54 -53 0
1 54 7 0
1 -54 -55 0
1 -54 5 0
1 -14 -57 0
1 -14 58 0
1 14 59 0
1 14 -15 0
1 14 55 0
1 -14 56 0
1 14 -60 0
1 -14 -61 0
1 -15 57 0
1 15 53 0
1 15 58 0
1 -15 59 0
1 15 -11 0
1 15 -55 0
1 -15 -56 0
1 15 -60 0
1 -15 61 0
1 -15 14 0
1 53 27 0
1 -53 62 0
1 53 24 0
1 -53 -54 0
1 -53 -56 0
1 53 26 0
1 53 28 0
1 -53 14 0
1 53 5 0
1 -56 53 0
1 56 27 0
1 56 -24 0
1 56 15 0
1 -56 -54 0
1 56 63 0
1 56 -26 0
1 -56 28 0
1 -56 -5 0
1 -57 15 0
1 -57 54 0
1 -57 55 0
1 57 -14 0
1 57 5 0
1 -55 57 0
1 -55 -15 0
1 55 -54 0
1 55 -64 0
1 55 14 0
1 28 58 0
1 -28 -24 0
1 28 -59 0
1 28 -2 0
1 28 56 0
1 28 -60 0
1 28 61 0
1 28 4 0
1 -24 53 0
1 24 56 0
1 -24 60 0
1 24 -61 0
1 24 28 0
1 -24 4 0
1 26 58 0
1 -26 -59 0
1 -26 65 0
1 -26 2 0
1 -26 -56 0
1 26 60 0
1 -26 20 0
1 26 66 0
1 26 67 0
1 26 -4 0
1 27 61 0
1 27 53 0
1 27 -23 0
1 -27 -58 0
1 27 65 0
1 27 -2 0
1 -27 -56 0
1 27 -60 0
1 27 -26 0
1 27 -66 0
1 27 -67 0
1 -27 -4 0
1 -59 68 0
1 59 61 0
1 59 42 0
1 59 -16 0
1 59 27 0
1 59 69 0
1 -59 15 0
1 59 45 0
1 -59 -19 0
1 59 26 0
1 -59 14 0
1 61 68 0
1 61 -42 0
1 61 16 0
1 61 27 0
1 61 -24 0
1 -61 -15 0
1 -61 -70 0
1 61 19 0
1 61 -26 0
1 -61 -71 0
1 61 28 0
1 61 -14 0
1 58 -68 0
1 58 27 0
1 -58 24 0
1 -58 -15 0
1 -58 70 0
1 -58 60 0
1 -58 26 0
1 -58 28 0
1 58 14 0
1 60 68 0
1 60 58 0
1 60 -24 0
1 -60 15 0
1 -60 70 0
1 60 26 0
1 60 28 0
1 60 -14 0
1 -19 -9 0
1 19 16 0
1 -19 -59 0
1 19 -72 0
1 -19 -2 0
1 19 3 0
1 -19 -12 0
1 -19 36 0
1 19 61 0
1 19 -66 0
1 -19 -67 0
1 16 9 0
1 -16 -34 0
1 16 59 0
1 -16 72 0
1 16 -65 0
1 16 2 0
1 16 3 0
1 16 -19 0
1 16 61 0
1 -16 -66 0
1 -16 67 0
1 16 -6 0
1 -45 22 0
1 -45 42 0
1 45 -72 0
1 -45 65 0
1 -45 -25 0
1 45 -18 0
1 -45 12 0
1 -45 -41 0
1 -45 -61 0
1 -45 66 0
1 -42 22 0
1 42 -9 0
1 42 -72 0
1 42 65 0
1 42 -18 0
1 -42 45 0
1 -42 61 0
1 -42 -67 0
1 42 -29 0
1 -65 42 0
1 -65 -16 0
1 65 27 0
1 65 -73 0
1 65 74 0
1 65 -35 0
1 -65 45 0
1 65 67 0
1 -65 75 0
1 -65 -51 0
1 65 -38 0
1 -67 -42 0
1 -67 -65 0
1 -67 73 0
1 67 49 0
1 67 -76 0
1 67 19 0
1 -67 26 0
1 -67 -75 0
1 -67 51 0
1 67 -38 0
1 -72 -42 0
1 -72 16 0
1 -72 -27 0
1 -72 -77 0
1 72 73 0
1 -72 -78 0
1 -72 70 0
1 72 -26 0
1 -72 66 0
1 66 68 0
1 66 16 0
1 66 -72 0
1 66 73 0
1 -66 70 0
1 -66 -45 0
1 66 -19 0
1 -66 -26 0
1 -66 -79 0
1 66 75 0
1 35 -22 0
1 35 9 0
1 -35 10 0
1 -35 65 0
1 35 -25 0
1 35 -12 0
1 -35 18 0
1 35 13 0
1 -35 67 0
1 -35 -29 0
1 35 -38 0
1 38 68 0
1 -38 -9 0
1 -38 22 0
1 38 10 0
1 38 -30 0
1 38 65 0
1 -38 25 0
1 38 -35 0
1 38 -18 0
1 38 -12 0
1 38 13 0
1 38 33 0
1 -38 67 0
1 49 22 0
1 49 44 0
1 49 40 0
1 -49 -65 0
1 49 78 0
1 49 18 0
1 49 -33 0
1 49 -67 0
1 -49 29 0
1 -51 22 0
1 -51 -44 0
1 51 40 0
1 -51 30 0
1 -51 65 0
1 51 -49 0
1 -51 25 0
1 51 43 0
1 -51 -37 0
1 -51 -29 0
1 51 67 0
1 51 80 0
1 -18 -42 0
1 -18 -81 0
1 18 82 0
1 18 -46 0
1 18 49 0
1 18 35 0
1 18 -45 0
1 -18 -83 0
1 -18 84 0
1 18 48 0
1 18 51 0
1 22 42 0
1 -22 81 0
1 -22 46 0
1 -22 -49 0
1 -22 -35 0
1 22 45 0
1 22 -6 0
1 -22 -83 0
1 -22 84 0
1 22 -48 0
1 22 -51 0
1 -22 38 0
1 -25 -42 0
1 25 85 0
1 -25 73 0
1 -25 2 0
1 -25 -35 0
1 -25 86 0
1 25 -51 0
1 25 29 0
1 -29 -42 0
1 -29 49 0
1 -29 35 0
1 -29 -45 0
1 -29 4 0
1 -29 83 0
1 -29 -75 0
1 29 -51 0
1 -29 38 0
1 46 -22 0
1 -46 -30 0
1 -46 40 0
1 46 -31 0
1 -46 73 0
1 -46 18 0
1 -46 43 0
1 -46 37 0
1 -46 -33 0
1 46 -32 0
1 -48 22 0
1 48 -44 0
1 -48 -40 0
1 48 30 0
1 -48 31 0
1 -48 46 0
1 48 -18 0
1 -48 43 0
1 -48 37 0
1 48 -33 0
1 48 75 0
1 82 -22 0
1 -82 -44 0
1 -82 40 0
1 -82 -52 0
1 -82 87 0
1 82 -85 0
1 -82 18 0
1 -82 -37 0
1 82 50 0
1 82 -47 0
1 -84 22 0
1 -84 -40 0
1 84 52 0
1 -84 -82 0
1 -84 -37 0
1 84 50 0
1 -84 47 0
1 -84 86 0
1 -37 -40 0
1 -37 -88 0
1 37 89 0
1 37 82 0
1 -37 46 0
1 37 -49 0
1 -37 -13 0
1 37 90 0
1 37 91 0
1 37 -84 0
1 37 -48 0
1 37 -51 0
1 -40 -10 0
1 40 -88 0
1 -40 89 0
1 -40 -82 0
1 -40 -49 0
1 40 -90 0
1 40 -37 0
1 40 -91 0
1 40 -48 0
1 -40 -51 0
1 43 92 0
1 43 81 0
1 43 82 0
1 -43 -46 0
1 43 -49 0
1 43 12 0
1 43 93 0
1 -43 -83 0
1 43 48 0
1 -44 9 0
1 -44 92 0
1 44 -81 0
1 44 -82 0
1 -44 46 0
1 44 49 0
1 -44 43 0
1 44 93 0
1 -44 -84 0
1 44 -48 0
1 89 -40 0
1 89 -52 0
1 89 -87 0
1 -89 50 0
1 -89 -37 0
1 89 -91 0
1 -89 47 0
1 91 40 0
1 -91 89 0
1 91 -87 0
1 -91 37 0
1 91 -50 0
1 91 83 0
1 -88 -40 0
1 88 -52 0
1 -88 92 0
1 -88 -87 0
1 -88 90 0
1 -88 -37 0
1 88 50 0
1 88 -47 0
1 90 40 0
1 -90 88 0
1 -90 -52 0
1 -90 87 0
1 -90 -37 0
1 90 -93 0
1 90 -50 0
1 -90 47 0
1 47 82 0
1 47 90 0
1 -47 91 0
1 47 -32 0
1 -87 88 0
1 -87 31 0
1 87 89 0
1 87 82 0
1 -87 -90 0
1 87 91 0
1 87 -84 0
1 87 47 0
1 -50 -88 0
1 -50 -52 0
1 50 82 0
1 50 -90 0
1 -50 33 0
1 50 -91 0
1 -50 -84 0
1 52 -30 0
1 52 88 0
1 52 89 0
1 52 82 0
1 52 50 0
1 -52 -90 0
1 52 -84 0
1 -70 68 0
1 -70 94 0
1 -70 62 0
1 -70 -58 0
1 -70 59 0
1 -70 72 0
1 70 -35 0
1 -70 64 0
1 -70 63 0
1 70 -60 0
1 70 -61 0
1 -70 -66 0
1 68 94 0
1 -68 62 0
1 -68 58 0
1 -68 59 0
1 -68 70 0
1 -68 -64 0
1 -68 63 0
1 -68 60 0
1 68 -61 0
1 68 38 0
1 78 -62 0
1 -78 95 0
1 -78 69 0
1 -78 -72 0
1 78 -64 0
1 78 -96 0
1 -78 71 0
1 -78 66 0
1 -78 80 0
1 80 94 0
1 -80 -62 0
1 80 95 0
1 80 69 0
1 -80 -72 0
1 80 -78 0
1 80 -64 0
1 80 -63 0
1 80 -96 0
1 -80 -71 0
1 -80 66 0
1 -80 -51 0
1 -62 -53 0
1 62 85 0
1 -62 -73 0
1 -62 -70 0
1 62 -63 0
1 -62 86 0
1 -62 75 0
1 62 -80 0
1 -63 -68 0
1 63 62 0
1 -63 -85 0
1 63 73 0
1 -63 -70 0
1 -63 -56 0
1 -63 75 0
1 -63 80 0
1 94 68 0
1 94 -57 0
1 94 78 0
1 -94 70 0
1 94 64 0
1 -64 -68 0
1 -64 94 0
1 -64 78 0
1 -64 70 0
1 -64 55 0
1 -73 -62 0
1 73 69 0
1 73 72 0
1 -73 65 0
1 73 25 0
1 73 -63 0
1 -73 96 0
1 -73 67 0
1 73 -75 0
1 73 -29 0
1 75 62 0
1 75 95 0
1 75 -69 0
1 -75 72 0
1 75 67 0
1 75 65 0
1 -75 -73 0
1 -75 -25 0
1 75 63 0
1 75 96 0
1 75 71 0
1 -75 66 0
1 -75 -48 0
1 75 29 0
1 85 -62 0
1 -85 -79 0
1 -85 95 0
1 -85 69 0
1 -85 -82 0
1 -85 -77 0
1 85 -25 0
1 -85 96 0
1 -85 -71 0
1 -85 -76 0
1 -85 29 0
1 86 69 0
1 86 -85 0
1 86 -63 0
1 -86 -71 0
1 -86 84 0
1 86 79 0
1 -86 -76 0
1 86 -29 0
1 69 71 0
1 69 -92 0
1 69 81 0
1 69 -85 0
1 -69 73 0
1 -69 -78 0
1 -69 93 0
1 69 83 0
1 -69 -86 0
1 -69 -75 0
1 69 80 0
1 -71 81 0
1 -71 -69 0
1 71 85 0
1 71 73 0
1 71 -93 0
1 71 -61 0
1 71 75 0
1 -71 -80 0
1 95 -58 0
1 95 85 0
1 95 -73 0
1 -95 -78 0
1 -95 -96 0
1 -95 75 0
1 -95 -80 0
1 -96 95 0
1 96 -85 0
1 -96 -78 0
1 96 -60 0
1 -96 86 0
1 96 -75 0
1 96 -80 0
1 81 -22 0
1 81 44 0
1 -81 71 0
1 81 89 0
1 -81 69 0
1 81 77 0
1 81 -74 0
1 81 -25 0
1 -81 -18 0
1 81 -83 0
1 -81 -79 0
1 81 -76 0
1 83 22 0
1 -83 44 0
1 -83 -69 0
1 -83 -74 0
1 83 -25 0
1 83 -18 0
1 -83 -43 0
1 -83 -91 0
1 -83 -76 0
1 83 -29 0
1 -92 44 0
1 -92 -88 0
1 92 -69 0
1 -92 77 0
1 92 -74 0
1 -92 43 0
1 92 -93 0
1 92 71 0
1 -92 79 0
1 93 -69 0
1 93 -43 0
1 -93 79 0
1 93 -76 0
1 74 92 0
1 74 81 0
1 74 -65 0
1 -74 93 0
1 74 -83 0
1 74 76 0
1 -76 -92 0
1 -76 81 0
1 76 -85 0
1 76 74 0
1 76 -93 0
1 -76 -83 0
1 76 -86 0
1 76 -67 0
1 77 -92 0
1 77 -79 0
1 77 81 0
1 -77 -85 0
1 77 93 0
1 77 -83 0
1 -77 -86 0
1 79 92 0
1 79 81 0
1 -79 -85 0
1 79 -77 0
1 79 -93 0
1 -79 -66 0
1 79 -86 0
